(set-logic BV) (define-fun origCir ((n119 Bool) (n310 Bool) (n313 Bool) (n269 Bool) (n445 Bool) (i_14 Bool)) Bool (and (and (and n445 (xor (and n313 n269) (not (and n310 n119)))) (xor (and (not (xor (and n313 n269) (not (and n310 n119)))) (and n310 n119)) (not (and n310 n119)))) i_14)) (synth-fun skel ((n119 Bool) (n310 Bool) (n313 Bool) (n269 Bool) (n445 Bool) (i_14 Bool)) Bool) (declare-var n119 Bool) (declare-var n310 Bool) (declare-var n313 Bool) (declare-var n269 Bool) (declare-var n445 Bool) (declare-var i_14 Bool) (constraint (= (origCir n119 n310 n313 n269 n445 i_14) (skel n119 n310 n313 n269 n445 i_14))) (check-synth)
